unsat
(define-fun inv-f ((i Int) (j Int) (n Int) (k Int)) Bool (or (not (= n 1)) (= i j)))
63.40user 0.06system 1:03.47elapsed 99%CPU (0avgtext+0avgdata 66784maxresident)k
0inputs+8outputs (0major+11378minor)pagefaults 0swaps
